36 28
0 33 34 5 8 9 10 11 13 14 18 23 27 30 
0 1 33 34 5 9 10 11 13 14 15 16 17 19 20 23 27 30 
0 33 2 34 5 8 10 11 13 14 15 18 21 22 24 25 27 30 
0 34 35 5 6 8 9 10 11 14 18 19 23 24 27 28 30 31 
0 33 32 35 5 7 8 9 10 11 13 18 20 23 25 27 29 30 
0 2 3 5 8 11 13 14 15 16 18 22 24 25 26 28 29 30 33 34 
0 2 3 4 5 8 13 14 15 16 17 18 24 25 28 29 31 32 33 34 
1 33 34 5 8 12 15 16 17 19 20 23 27 30 
1 2 33 34 5 8 9 12 16 17 19 20 21 22 24 25 27 30 
1 34 35 5 6 8 12 13 15 16 17 20 23 24 27 28 30 31 
32 1 33 35 5 7 8 12 14 15 16 17 19 23 25 27 29 30 
1 2 3 5 8 9 10 12 17 19 20 22 24 25 26 28 29 30 33 34 
1 2 3 4 5 8 9 10 11 12 19 20 24 25 28 29 31 32 33 34 
2 3 9 10 15 16 22 23 24 25 26 27 28 29 
33 2 34 5 9 12 15 18 21 22 24 25 27 30 
32 2 3 4 9 10 11 15 16 17 23 24 25 27 28 29 30 31 
2 34 35 5 6 9 12 13 15 18 19 21 22 25 27 28 30 31 
32 33 2 35 5 7 9 12 14 15 18 20 21 22 24 27 29 30 
32 3 4 10 11 16 17 21 22 27 28 29 30 31 
33 2 3 34 5 9 10 12 15 16 18 22 24 25 26 28 29 30 
2 3 5 6 9 10 12 13 15 16 18 19 22 25 26 29 30 31 34 35 
2 3 5 7 9 10 12 14 15 16 18 20 22 24 26 28 30 32 33 35 
2 3 4 5 9 10 11 12 15 16 17 18 24 25 28 29 31 32 33 34 
2 3 4 5 6 9 10 11 12 13 15 16 17 18 19 25 29 32 34 35 
2 3 4 5 7 9 10 11 12 14 15 16 17 18 20 24 28 31 33 35 
34 35 5 6 12 13 18 19 23 24 27 28 30 31 
32 33 35 5 7 12 14 18 20 23 25 27 29 30 
32 5 6 7 12 13 14 18 19 20 23 24 25 27 28 29 30 31 
